interdiction/MCDM/NO_CORR/GEN_FROM_60/17_ITEMS_1000_GEN/K5017W18.KNP.mps
NAME          BLANK   
ROWS
 N  OBJROW
 L  R0000000
COLUMNS
    C0000000  OBJROW     -392.         R0000000  908.        
    C0000001  OBJROW     -865.         R0000000  607.        
    C0000002  OBJROW     -169.         R0000000  960.        
    C0000003  OBJROW     -591.         R0000000  454.        
    C0000004  OBJROW     -386.         R0000000  253.        
    C0000005  OBJROW     -361.         R0000000  23.         
    C0000006  OBJROW     -16.          R0000000  116.        
    C0000007  OBJROW     -365.         R0000000  135.        
    C0000008  OBJROW     -765.         R0000000  373.        
    C0000009  OBJROW     -502.         R0000000  251.        
    C0000010  OBJROW     -910.         R0000000  764.        
    C0000011  OBJROW     -797.         R0000000  175.        
    C0000012  OBJROW     -924.         R0000000  884.        
    C0000013  OBJROW     -690.         R0000000  598.        
    C0000014  OBJROW     -873.         R0000000  435.        
    C0000015  OBJROW     -938.         R0000000  577.        
    C0000016  OBJROW     -496.         R0000000  914.        
RHS
    RHS       R0000000  14132.      
BOUNDS
 BV BOUND     C0000000  1.          
 BV BOUND     C0000001  1.          
 BV BOUND     C0000002  1.          
 BV BOUND     C0000003  1.          
 BV BOUND     C0000004  1.          
 BV BOUND     C0000005  1.          
 BV BOUND     C0000006  1.          
 BV BOUND     C0000007  1.          
 BV BOUND     C0000008  1.          
 BV BOUND     C0000009  1.          
 BV BOUND     C0000010  1.          
 BV BOUND     C0000011  1.          
 BV BOUND     C0000012  1.          
 BV BOUND     C0000013  1.          
 BV BOUND     C0000014  1.          
 BV BOUND     C0000015  1.          
 BV BOUND     C0000016  1.          
ENDATA
