data/MCDM/NO_CORR/GEN_FROM_60/17_ITEMS_1000_GEN/K5017W18.KNP.txt
N 17
M 18
LC 17
LC 18
LC 19
LC 20
LC 21
LC 22
LC 23
LC 24
LC 25
LC 26
LC 27
LC 28
LC 29
LC 30
LC 31
LC 32
LC 33
LR 1
LR 2
LR 3
LR 4
LR 5
LR 6
LR 7
LR 8
LR 9
LR 10
LR 11
LR 12
LR 13
LR 14
LR 15
LR 16
LR 17
LR 18
LO -392
LO -865
LO -169
LO -591
LO -386
LO -361
LO -16
LO -365
LO -765
LO -502
LO -910
LO -797
LO -924
LO -690
LO -873
LO -938
LO -496
OS 1
IC 286
IC 861
IC 211
IC 735
IC 660
IC 193
IC 482
IC 912
IC 663
IC 232
IC 304
IC 313
IC 793
IC 947
IC 766
IC 892
IC 580
IB 4915
